problems/csplib-prob065/opd-models/noch/O0/minion/model_2-small_bibd_15_21_07-solution000001.solution
language Essence 1.3

letting lambda be 3
letting opd be
        {{1, 2, 3, 4, 5, 6, 7}, {1, 2, 3, 8, 9, 10, 11}, {1, 2, 3, 12, 13, 14, 15}, {1, 2, 3, 16, 17, 18, 19},
         {1, 2, 4, 8, 12, 16, 20}, {1, 2, 4, 9, 13, 17, 21}, {1, 2, 5, 8, 14, 18, 21}, {1, 2, 5, 9, 15, 19, 20},
         {1, 2, 6, 10, 12, 19, 21}, {1, 2, 6, 11, 13, 18, 20}, {1, 2, 7, 10, 14, 17, 20}, {1, 2, 7, 11, 15, 16, 21},
         {1, 3, 4, 8, 15, 19, 21}, {1, 3, 4, 9, 14, 18, 20}, {1, 3, 5, 8, 13, 17, 20}}
$ Visualisation for opd
$  1  2  3  4  5  6  7
$  1  2  3  8  9 10 11
$  1  2  3 12 13 14 15
$  1  2  3 16 17 18 19
$  1  2  4  8 12 16 20
$  1  2  4  9 13 17 21
$  1  2  5  8 14 18 21
$  1  2  5  9 15 19 20
$  1  2  6 10 12 19 21
$  1  2  6 11 13 18 20
$  1  2  7 10 14 17 20
$  1  2  7 11 15 16 21
$  1  3  4  8 15 19 21
$  1  3  4  9 14 18 20
$  1  3  5  8 13 17 20

